
Route #1: 23 57 48 54 11 63 7 62 
Route #2: 60 30 37 35 36 49 45 
Route #3: 18 52 24 56 44 59 32 19 
Route #4: 26 47 34 31 46 64 6 
Route #5: 17 9 14 53 21 61 
Route #6: 8 58 20 50 41 38 42 
Route #7: 5 2 16 51 39 28 40 33 
Route #8: 29 55 12 1 13 10 25 
Route #9: 22 3 4 15 27 43 
cost 1831.16
total time is 7.6